125
[25,26,27,28,29,30,31,32,33,34,35,36,37,38,39,40,41,42,44,45,46,47,48,49,50,51,54,55,56,57,58,59,60,61,62,63,64,65,66,67,68,69,70,71,72,73,74,75,77,78,79,80,81,82,83,84,85,86,87,88,89,90,91,92,93,94,95,96,97,98,100]
[1,4,2,6,2,4,2,2,1,6,2,1,2,3,3,6,2,4,3,3,3,5,2,4,2,4,2,2,5,3,3,1,3,2,5,2,6,4,1,2,2,1,2,3,3,4,3,3,4,4,3,1,2,1,1,3,3,3,1,3,4,4,2,2,5,2,5,1,1,2,2]
